p cnf 410 1599
c p weight -11 1 0
c p weight 11 -1 0
c p weight 15 6.12323399573676603586882014729198302312846062338790031898128063403419218957424163818359375E-17 0
c p weight -15 1 0
c p weight 16 1 0
c p weight -16 1 0
c p weight -13 1 0
c p weight 13 -1 0
c p weight -17 1 0
c p weight 17 -1 0
c p weight 21 1 0
c p weight -21 1 0
c p weight 22 0 0
c p weight -22 1 0
c p weight -19 1 0
c p weight 19 -1 0
c p weight -23 1 0
c p weight 23 -1 0
c p weight 27 6.12323399573676603586882014729198302312846062338790031898128063403419218957424163818359375E-17 0
c p weight -27 1 0
c p weight 28 1 0
c p weight -28 1 0
c p weight -25 1 0
c p weight 25 -1 0
c p weight -29 1 0
c p weight 29 -1 0
c p weight 33 1 0
c p weight -33 1 0
c p weight 34 0 0
c p weight -34 1 0
c p weight -31 1 0
c p weight 31 -1 0
c p weight -35 1 0
c p weight 35 -1 0
c p weight 39 6.12323399573676603586882014729198302312846062338790031898128063403419218957424163818359375E-17 0
c p weight -39 1 0
c p weight 40 1 0
c p weight -40 1 0
c p weight -37 1 0
c p weight 37 -1 0
c p weight -41 1 0
c p weight 41 -1 0
c p weight 45 1 0
c p weight -45 1 0
c p weight 46 0 0
c p weight -46 1 0
c p weight -43 1 0
c p weight 43 -1 0
c p weight -47 1 0
c p weight 47 -1 0
c p weight 51 6.12323399573676603586882014729198302312846062338790031898128063403419218957424163818359375E-17 0
c p weight -51 1 0
c p weight 52 1 0
c p weight -52 1 0
c p weight -49 1 0
c p weight 49 -1 0
c p weight -53 1 0
c p weight 53 -1 0
c p weight 57 1 0
c p weight -57 1 0
c p weight 58 0 0
c p weight -58 1 0
c p weight -55 1 0
c p weight 55 -1 0
c p weight 61 1 0
c p weight -61 1 0
c p weight 62 0 0
c p weight -62 1 0
c p weight -59 1 0
c p weight 59 -1 0
c p weight 65 6.12323399573676603586882014729198302312846062338790031898128063403419218957424163818359375E-17 0
c p weight -65 1 0
c p weight 66 1 0
c p weight -66 1 0
c p weight -63 1 0
c p weight 63 -1 0
c p weight 69 -0.600000000000000088817841970012523233890533447265625 0
c p weight -69 1 0
c p weight 70 -0.79999999999999993338661852249060757458209991455078125 0
c p weight -70 1 0
c p weight -67 1 0
c p weight 67 -1 0
c p weight 73 6.12323399573676603586882014729198302312846062338790031898128063403419218957424163818359375E-17 0
c p weight -73 1 0
c p weight 74 1 0
c p weight -74 1 0
c p weight -71 1 0
c p weight 71 -1 0
c p weight 77 -1 0
c p weight -77 1 0
c p weight 78 3.673940397442059375002259206809000622711899723162043418511757408850826323032379150390625E-16 0
c p weight -78 1 0
c p weight -75 1 0
c p weight 75 -1 0
c p weight 81 1 0
c p weight -81 1 0
c p weight 82 0 0
c p weight -82 1 0
c p weight -79 1 0
c p weight 79 -1 0
c p weight -83 1 0
c p weight 83 -1 0
c p weight 88 1 0
c p weight -88 1 0
c p weight 89 0 0
c p weight -89 1 0
c p weight -86 1 0
c p weight 86 -1 0
c p weight 92 6.12323399573676603586882014729198302312846062338790031898128063403419218957424163818359375E-17 0
c p weight -92 1 0
c p weight 93 1 0
c p weight -93 1 0
c p weight -90 1 0
c p weight 90 -1 0
c p weight 96 -0.5999999999999998667732370449812151491641998291015625 0
c p weight -96 1 0
c p weight 97 0.80000000000000015543122344752191565930843353271484375 0
c p weight -97 1 0
c p weight -94 1 0
c p weight 94 -1 0
c p weight 100 6.12323399573676603586882014729198302312846062338790031898128063403419218957424163818359375E-17 0
c p weight -100 1 0
c p weight 101 1 0
c p weight -101 1 0
c p weight -98 1 0
c p weight 98 -1 0
c p weight 104 -1 0
c p weight -104 1 0
c p weight 105 3.673940397442059375002259206809000622711899723162043418511757408850826323032379150390625E-16 0
c p weight -105 1 0
c p weight -102 1 0
c p weight 102 -1 0
c p weight -106 1 0
c p weight 106 -1 0
c p weight 111 0.9807852804032304305792422383092343807220458984375 0
c p weight -111 1 0
c p weight 112 -0.195090322016128248083788321309839375317096710205078125 0
c p weight -112 1 0
c p weight -109 1 0
c p weight 109 -1 0
c p weight 115 1 0
c p weight -115 1 0
c p weight 116 0 0
c p weight -116 1 0
c p weight -113 1 0
c p weight 113 -1 0
c p weight 119 6.12323399573676603586882014729198302312846062338790031898128063403419218957424163818359375E-17 0
c p weight -119 1 0
c p weight 120 1 0
c p weight -120 1 0
c p weight -117 1 0
c p weight 117 -1 0
c p weight 123 -0.600000000000000088817841970012523233890533447265625 0
c p weight -123 1 0
c p weight 124 -0.79999999999999993338661852249060757458209991455078125 0
c p weight -124 1 0
c p weight -121 1 0
c p weight 121 -1 0
c p weight 127 6.12323399573676603586882014729198302312846062338790031898128063403419218957424163818359375E-17 0
c p weight -127 1 0
c p weight 128 1 0
c p weight -128 1 0
c p weight -125 1 0
c p weight 125 -1 0
c p weight 131 -1 0
c p weight -131 1 0
c p weight 132 3.673940397442059375002259206809000622711899723162043418511757408850826323032379150390625E-16 0
c p weight -132 1 0
c p weight -129 1 0
c p weight 129 -1 0
c p weight 135 1 0
c p weight -135 1 0
c p weight 136 0 0
c p weight -136 1 0
c p weight -133 1 0
c p weight 133 -1 0
c p weight -137 1 0
c p weight 137 -1 0
c p weight 142 1 0
c p weight -142 1 0
c p weight 143 0 0
c p weight -143 1 0
c p weight -140 1 0
c p weight 140 -1 0
c p weight 146 6.12323399573676603586882014729198302312846062338790031898128063403419218957424163818359375E-17 0
c p weight -146 1 0
c p weight 147 1 0
c p weight -147 1 0
c p weight -144 1 0
c p weight 144 -1 0
c p weight 150 0.2800000000000000266453525910037569701671600341796875 0
c p weight -150 1 0
c p weight 151 0.95999999999999996447286321199499070644378662109375 0
c p weight -151 1 0
c p weight -148 1 0
c p weight 148 -1 0
c p weight 154 6.12323399573676603586882014729198302312846062338790031898128063403419218957424163818359375E-17 0
c p weight -154 1 0
c p weight 155 1 0
c p weight -155 1 0
c p weight -152 1 0
c p weight 152 -1 0
c p weight 158 -1 0
c p weight -158 1 0
c p weight 159 3.673940397442059375002259206809000622711899723162043418511757408850826323032379150390625E-16 0
c p weight -159 1 0
c p weight -156 1 0
c p weight 156 -1 0
c p weight -160 1 0
c p weight 160 -1 0
c p weight 165 0.9238795325112867384831361050601117312908172607421875 0
c p weight -165 1 0
c p weight 166 -0.382683432365089781779232680491986684501171112060546875 0
c p weight -166 1 0
c p weight -163 1 0
c p weight 163 -1 0
c p weight 169 1 0
c p weight -169 1 0
c p weight 170 0 0
c p weight -170 1 0
c p weight -167 1 0
c p weight 167 -1 0
c p weight 173 6.12323399573676603586882014729198302312846062338790031898128063403419218957424163818359375E-17 0
c p weight -173 1 0
c p weight 174 1 0
c p weight -174 1 0
c p weight -171 1 0
c p weight 171 -1 0
c p weight 177 0.2800000000000000266453525910037569701671600341796875 0
c p weight -177 1 0
c p weight 178 -0.95999999999999996447286321199499070644378662109375 0
c p weight -178 1 0
c p weight -175 1 0
c p weight 175 -1 0
c p weight 181 6.12323399573676603586882014729198302312846062338790031898128063403419218957424163818359375E-17 0
c p weight -181 1 0
c p weight 182 1 0
c p weight -182 1 0
c p weight -179 1 0
c p weight 179 -1 0
c p weight 185 -1 0
c p weight -185 1 0
c p weight 186 3.673940397442059375002259206809000622711899723162043418511757408850826323032379150390625E-16 0
c p weight -186 1 0
c p weight -183 1 0
c p weight 183 -1 0
c p weight 189 1 0
c p weight -189 1 0
c p weight 190 0 0
c p weight -190 1 0
c p weight -187 1 0
c p weight 187 -1 0
c p weight -191 1 0
c p weight 191 -1 0
c p weight 196 1 0
c p weight -196 1 0
c p weight 197 0 0
c p weight -197 1 0
c p weight -194 1 0
c p weight 194 -1 0
c p weight 200 6.12323399573676603586882014729198302312846062338790031898128063403419218957424163818359375E-17 0
c p weight -200 1 0
c p weight 201 1 0
c p weight -201 1 0
c p weight -198 1 0
c p weight 198 -1 0
c p weight 204 0.84320000000000006057376822354854084551334381103515625 0
c p weight -204 1 0
c p weight 205 -0.53759999999999996678212710321531631052494049072265625 0
c p weight -205 1 0
c p weight -202 1 0
c p weight 202 -1 0
c p weight 208 6.12323399573676603586882014729198302312846062338790031898128063403419218957424163818359375E-17 0
c p weight -208 1 0
c p weight 209 1 0
c p weight -209 1 0
c p weight -206 1 0
c p weight 206 -1 0
c p weight 212 -1 0
c p weight -212 1 0
c p weight 213 3.673940397442059375002259206809000622711899723162043418511757408850826323032379150390625E-16 0
c p weight -213 1 0
c p weight -210 1 0
c p weight 210 -1 0
c p weight -214 1 0
c p weight 214 -1 0
c p weight 219 0.70710678118654752440084436210485 0
c p weight -219 1 0
c p weight -217 1 0
c p weight 217 -1 0
c p weight 222 1 0
c p weight -222 1 0
c p weight 223 0 0
c p weight -223 1 0
c p weight -220 1 0
c p weight 220 -1 0
c p weight 226 6.12323399573676603586882014729198302312846062338790031898128063403419218957424163818359375E-17 0
c p weight -226 1 0
c p weight 227 1 0
c p weight -227 1 0
c p weight -224 1 0
c p weight 224 -1 0
c p weight 230 0.843199999999999949551465761032886803150177001953125 0
c p weight -230 1 0
c p weight 231 0.5376000000000000778044295657309703528881072998046875 0
c p weight -231 1 0
c p weight -228 1 0
c p weight 228 -1 0
c p weight 234 6.12323399573676603586882014729198302312846062338790031898128063403419218957424163818359375E-17 0
c p weight -234 1 0
c p weight 235 1 0
c p weight -235 1 0
c p weight -232 1 0
c p weight 232 -1 0
c p weight 238 -1 0
c p weight -238 1 0
c p weight 239 3.673940397442059375002259206809000622711899723162043418511757408850826323032379150390625E-16 0
c p weight -239 1 0
c p weight -236 1 0
c p weight 236 -1 0
c p weight 242 1 0
c p weight -242 1 0
c p weight 243 0 0
c p weight -243 1 0
c p weight -240 1 0
c p weight 240 -1 0
c p weight -244 1 0
c p weight 244 -1 0
c p weight 249 1 0
c p weight -249 1 0
c p weight 250 0 0
c p weight -250 1 0
c p weight -247 1 0
c p weight 247 -1 0
c p weight 253 6.12323399573676603586882014729198302312846062338790031898128063403419218957424163818359375E-17 0
c p weight -253 1 0
c p weight 254 1 0
c p weight -254 1 0
c p weight -251 1 0
c p weight 251 -1 0
c p weight 257 -0.4219724800000002051802994174067862331867218017578125 0
c p weight -257 1 0
c p weight 258 0.90660863999999985463063012502971105277538299560546875 0
c p weight -258 1 0
c p weight -255 1 0
c p weight 255 -1 0
c p weight 261 6.12323399573676603586882014729198302312846062338790031898128063403419218957424163818359375E-17 0
c p weight -261 1 0
c p weight 262 1 0
c p weight -262 1 0
c p weight -259 1 0
c p weight 259 -1 0
c p weight 265 -1 0
c p weight -265 1 0
c p weight 266 3.673940397442059375002259206809000622711899723162043418511757408850826323032379150390625E-16 0
c p weight -266 1 0
c p weight -263 1 0
c p weight 263 -1 0
c p weight -267 1 0
c p weight 267 -1 0
c p weight -270 1 0
c p weight 270 -1 0
c p weight 274 6.12323399573676603586882014729198302312846062338790031898128063403419218957424163818359375E-17 0
c p weight -274 1 0
c p weight 275 1 0
c p weight -275 1 0
c p weight -272 1 0
c p weight 272 -1 0
c p weight -276 1 0
c p weight 276 -1 0
c p weight -278 1 0
c p weight 278 -1 0
c p weight 283 0.70710678118654752440084436210485 0
c p weight -283 1 0
c p weight -281 1 0
c p weight 281 -1 0
c p weight -284 1 0
c p weight 284 -1 0
c p weight -287 1 0
c p weight 287 -1 0
c p weight 291 6.12323399573676603586882014729198302312846062338790031898128063403419218957424163818359375E-17 0
c p weight -291 1 0
c p weight 292 1 0
c p weight -292 1 0
c p weight -289 1 0
c p weight 289 -1 0
c p weight -293 1 0
c p weight 293 -1 0
c p weight 297 0.70710678118654752440084436210485 0
c p weight -297 1 0
c p weight -295 1 0
c p weight 295 -1 0
c p weight -298 1 0
c p weight 298 -1 0
c p weight 303 0.9238795325112867384831361050601117312908172607421875 0
c p weight -303 1 0
c p weight 304 0.382683432365089781779232680491986684501171112060546875 0
c p weight -304 1 0
c p weight -301 1 0
c p weight 301 -1 0
c p weight -305 1 0
c p weight 305 -1 0
c p weight 310 0.70710678118654752440084436210485 0
c p weight -310 1 0
c p weight -308 1 0
c p weight 308 -1 0
c p weight -311 1 0
c p weight 311 -1 0
c p weight 316 0.70710678118654752440084436210485 0
c p weight -316 1 0
c p weight -314 1 0
c p weight 314 -1 0
c p weight -317 1 0
c p weight 317 -1 0
c p weight -320 1 0
c p weight 320 -1 0
c p weight 324 6.12323399573676603586882014729198302312846062338790031898128063403419218957424163818359375E-17 0
c p weight -324 1 0
c p weight 325 1 0
c p weight -325 1 0
c p weight -322 1 0
c p weight 322 -1 0
c p weight -326 1 0
c p weight 326 -1 0
c p weight 330 0.70710678118654752440084436210485 0
c p weight -330 1 0
c p weight -328 1 0
c p weight 328 -1 0
c p weight 333 0.9238795325112867384831361050601117312908172607421875 0
c p weight -333 1 0
c p weight 334 -0.382683432365089781779232680491986684501171112060546875 0
c p weight -334 1 0
c p weight -331 1 0
c p weight 331 -1 0
c p weight -335 1 0
c p weight 335 -1 0
c p weight 340 0.9807852804032304305792422383092343807220458984375 0
c p weight -340 1 0
c p weight 341 0.195090322016128248083788321309839375317096710205078125 0
c p weight -341 1 0
c p weight -338 1 0
c p weight 338 -1 0
c p weight -342 1 0
c p weight 342 -1 0
c p weight 347 0.9238795325112867384831361050601117312908172607421875 0
c p weight -347 1 0
c p weight 348 -0.382683432365089781779232680491986684501171112060546875 0
c p weight -348 1 0
c p weight -345 1 0
c p weight 345 -1 0
c p weight -349 1 0
c p weight 349 -1 0
c p weight 354 0.9238795325112867384831361050601117312908172607421875 0
c p weight -354 1 0
c p weight 355 0.382683432365089781779232680491986684501171112060546875 0
c p weight -355 1 0
c p weight -352 1 0
c p weight 352 -1 0
c p weight -356 1 0
c p weight 356 -1 0
c p weight 361 0.70710678118654752440084436210485 0
c p weight -361 1 0
c p weight -359 1 0
c p weight 359 -1 0
c p weight -362 1 0
c p weight 362 -1 0
c p weight 367 0.70710678118654752440084436210485 0
c p weight -367 1 0
c p weight -365 1 0
c p weight 365 -1 0
c p weight -368 1 0
c p weight 368 -1 0
c p weight -371 1 0
c p weight 371 -1 0
c p weight 375 6.12323399573676603586882014729198302312846062338790031898128063403419218957424163818359375E-17 0
c p weight -375 1 0
c p weight 376 1 0
c p weight -376 1 0
c p weight -373 1 0
c p weight 373 -1 0
c p weight -377 1 0
c p weight 377 -1 0
c p weight 381 0.70710678118654752440084436210485 0
c p weight -381 1 0
c p weight -379 1 0
c p weight 379 -1 0
c p weight 384 0.9238795325112867384831361050601117312908172607421875 0
c p weight -384 1 0
c p weight 385 -0.382683432365089781779232680491986684501171112060546875 0
c p weight -385 1 0
c p weight -382 1 0
c p weight 382 -1 0
c p weight 388 0.9807852804032304305792422383092343807220458984375 0
c p weight -388 1 0
c p weight 389 -0.195090322016128248083788321309839375317096710205078125 0
c p weight -389 1 0
c p weight -386 1 0
c p weight 386 -1 0
c p weight 392 1 0
c p weight -392 1 0
c p weight 393 0 0
c p weight -393 1 0
c p weight -390 1 0
c p weight 390 -1 0
c p weight 396 6.12323399573676603586882014729198302312846062338790031898128063403419218957424163818359375E-17 0
c p weight -396 1 0
c p weight 397 1 0
c p weight -397 1 0
c p weight -394 1 0
c p weight 394 -1 0
c p weight 400 -0.42197247999999965006878710482851602137088775634765625 0
c p weight -400 1 0
c p weight 401 -0.9066086400000001876975375125766731798648834228515625 0
c p weight -401 1 0
c p weight -398 1 0
c p weight 398 -1 0
c p weight 404 6.12323399573676603586882014729198302312846062338790031898128063403419218957424163818359375E-17 0
c p weight -404 1 0
c p weight 405 1 0
c p weight -405 1 0
c p weight -402 1 0
c p weight 402 -1 0
c p weight 408 -1 0
c p weight -408 1 0
c p weight 409 3.673940397442059375002259206809000622711899723162043418511757408850826323032379150390625E-16 0
c p weight -409 1 0
c p weight -406 1 0
c p weight 406 -1 0
c p weight 410 0.5 0
c p weight -410 1 0
410 0
-9 0
-7 0
-5 0
-3 0
-1 0
-11 1 0
-11 2 0
11 -1 -2 0
12 1 -2 0
12 -1 2 0
-12 1 2 0
-12 -1 -2 0
-13 14 0
-13 12 0
-13 -1 0
13 -14 1 -12 0
14 -1 12 0
-14 1 12 0
-15 12 0
14 -15 -1 0
-14 -15 1 0
14 15 1 -12 0
-14 15 -1 -12 0
-16 12 0
14 -16 1 0
-14 -16 -1 0
14 16 -1 -12 0
-14 16 1 -12 0
-17 14 0
-17 12 0
17 -14 -12 0
18 14 -12 0
18 -14 12 0
-18 14 12 0
-18 -14 -12 0
-19 14 0
-19 18 0
-19 -20 0
19 20 -14 -18 0
20 14 -18 0
-20 14 18 0
-21 14 0
20 -21 -18 0
-20 -21 18 0
20 21 -14 18 0
-20 21 -14 -18 0
-22 14 0
20 -22 18 0
-20 -22 -18 0
20 22 -14 -18 0
-20 22 -14 18 0
-23 3 0
-23 4 0
23 -3 -4 0
24 3 -4 0
24 -3 4 0
-24 3 4 0
-24 -3 -4 0
-25 26 0
-25 24 0
-25 -3 0
25 -26 3 -24 0
26 -3 24 0
-26 3 24 0
-27 24 0
26 -27 -3 0
-26 -27 3 0
26 27 3 -24 0
-26 27 -3 -24 0
-28 24 0
26 -28 3 0
-26 -28 -3 0
26 28 -3 -24 0
-26 28 3 -24 0
-29 26 0
-29 24 0
29 -26 -24 0
30 26 -24 0
30 -26 24 0
-30 26 24 0
-30 -26 -24 0
-31 26 0
-31 30 0
-31 -32 0
31 32 -26 -30 0
32 26 -30 0
-32 26 30 0
-33 26 0
32 -33 -30 0
-32 -33 30 0
32 33 -26 30 0
-32 33 -26 -30 0
-34 26 0
32 -34 30 0
-32 -34 -30 0
32 34 -26 -30 0
-32 34 -26 30 0
-35 5 0
-35 6 0
35 -5 -6 0
36 5 -6 0
36 -5 6 0
-36 5 6 0
-36 -5 -6 0
-37 38 0
-37 36 0
-37 -5 0
37 -38 5 -36 0
38 -5 36 0
-38 5 36 0
-39 36 0
38 -39 -5 0
-38 -39 5 0
38 39 5 -36 0
-38 39 -5 -36 0
-40 36 0
38 -40 5 0
-38 -40 -5 0
38 40 -5 -36 0
-38 40 5 -36 0
-41 38 0
-41 36 0
41 -38 -36 0
42 38 -36 0
42 -38 36 0
-42 38 36 0
-42 -38 -36 0
-43 38 0
-43 42 0
-43 -44 0
43 44 -38 -42 0
44 38 -42 0
-44 38 42 0
-45 38 0
44 -45 -42 0
-44 -45 42 0
44 45 -38 42 0
-44 45 -38 -42 0
-46 38 0
44 -46 42 0
-44 -46 -42 0
44 46 -38 -42 0
-44 46 -38 42 0
-47 7 0
-47 8 0
47 -7 -8 0
48 7 -8 0
48 -7 8 0
-48 7 8 0
-48 -7 -8 0
-49 50 0
-49 48 0
-49 -7 0
49 -50 7 -48 0
50 -7 48 0
-50 7 48 0
-51 48 0
50 -51 -7 0
-50 -51 7 0
50 51 7 -48 0
-50 51 -7 -48 0
-52 48 0
50 -52 7 0
-50 -52 -7 0
50 52 -7 -48 0
-50 52 7 -48 0
-53 50 0
-53 48 0
53 -50 -48 0
54 50 -48 0
54 -50 48 0
-54 50 48 0
-54 -50 -48 0
-55 50 0
-55 54 0
-55 -56 0
55 56 -50 -54 0
56 50 -54 0
-56 50 54 0
-57 50 0
56 -57 -54 0
-56 -57 54 0
56 57 -50 54 0
-56 57 -50 -54 0
-58 50 0
56 -58 54 0
-56 -58 -54 0
56 58 -50 -54 0
-56 58 -50 54 0
-59 9 0
-59 10 0
-59 -60 0
59 60 -9 -10 0
60 9 -10 0
-60 9 10 0
-61 9 0
60 -61 -10 0
-60 -61 10 0
60 61 -9 10 0
-60 61 -9 -10 0
-62 9 0
60 -62 10 0
-60 -62 -10 0
60 62 -9 -10 0
-60 62 -9 10 0
-63 64 0
-63 60 0
-63 -9 0
63 -64 9 -60 0
64 -9 60 0
-64 9 60 0
-65 60 0
64 -65 -9 0
-64 -65 9 0
64 65 9 -60 0
-64 65 -9 -60 0
-66 60 0
64 -66 9 0
-64 -66 -9 0
64 66 -9 -60 0
-64 66 9 -60 0
-67 64 0
-67 60 0
-67 -68 0
67 68 -64 -60 0
68 64 -60 0
-68 64 60 0
-69 64 0
68 -69 -60 0
-68 -69 60 0
68 69 -64 60 0
-68 69 -64 -60 0
-70 64 0
68 -70 60 0
-68 -70 -60 0
68 70 -64 -60 0
-68 70 -64 60 0
-71 72 0
-71 68 0
-71 -64 0
71 -72 64 -68 0
72 -64 68 0
-72 64 68 0
-73 68 0
72 -73 -64 0
-72 -73 64 0
72 73 64 -68 0
-72 73 -64 -68 0
-74 68 0
72 -74 64 0
-72 -74 -64 0
72 74 -64 -68 0
-72 74 64 -68 0
-75 72 0
-75 68 0
-75 -76 0
75 76 -72 -68 0
76 72 -68 0
-76 72 68 0
-77 72 0
76 -77 -68 0
-76 -77 68 0
76 77 -72 68 0
-76 77 -72 -68 0
-78 72 0
76 -78 68 0
-76 -78 -68 0
76 78 -72 -68 0
-76 78 -72 68 0
-79 72 0
-79 76 0
-79 -80 0
79 80 -72 -76 0
80 72 -76 0
-80 72 76 0
-81 72 0
80 -81 -76 0
-80 -81 76 0
80 81 -72 76 0
-80 81 -72 -76 0
-82 72 0
80 -82 76 0
-80 -82 -76 0
80 82 -72 -76 0
-80 82 -72 76 0
-83 14 0
-83 80 0
-83 72 -20 0
-83 -72 20 0
83 -14 72 20 -80 0
83 -14 -72 -20 -80 0
85 14 -72 0
85 -14 72 0
-85 14 72 0
-85 -14 -72 0
84 20 -80 0
84 -20 80 0
-84 20 80 0
-84 -20 -80 0
-86 85 0
-86 80 0
-86 -87 0
86 87 -85 -80 0
87 85 -80 0
-87 85 80 0
-88 85 0
87 -88 -80 0
-87 -88 80 0
87 88 -85 80 0
-87 88 -85 -80 0
-89 85 0
87 -89 80 0
-87 -89 -80 0
87 89 -85 -80 0
-87 89 -85 80 0
-90 91 0
-90 87 0
-90 -85 0
90 -91 85 -87 0
91 -85 87 0
-91 85 87 0
-92 87 0
91 -92 -85 0
-91 -92 85 0
91 92 85 -87 0
-91 92 -85 -87 0
-93 87 0
91 -93 85 0
-91 -93 -85 0
91 93 -85 -87 0
-91 93 85 -87 0
-94 91 0
-94 87 0
-94 -95 0
94 95 -91 -87 0
95 91 -87 0
-95 91 87 0
-96 91 0
95 -96 -87 0
-95 -96 87 0
95 96 -91 87 0
-95 96 -91 -87 0
-97 91 0
95 -97 87 0
-95 -97 -87 0
95 97 -91 -87 0
-95 97 -91 87 0
-98 99 0
-98 95 0
-98 -91 0
98 -99 91 -95 0
99 -91 95 0
-99 91 95 0
-100 95 0
99 -100 -91 0
-99 -100 91 0
99 100 91 -95 0
-99 100 -91 -95 0
-101 95 0
99 -101 91 0
-99 -101 -91 0
99 101 -91 -95 0
-99 101 91 -95 0
-102 99 0
-102 95 0
-102 -103 0
102 103 -99 -95 0
103 99 -95 0
-103 99 95 0
-104 99 0
103 -104 -95 0
-103 -104 95 0
103 104 -99 95 0
-103 104 -99 -95 0
-105 99 0
103 -105 95 0
-103 -105 -95 0
103 105 -99 -95 0
-103 105 -99 95 0
-106 14 0
-106 103 0
-106 99 -84 0
-106 -99 84 0
106 -14 99 84 -103 0
106 -14 -99 -84 -103 0
108 14 -99 0
108 -14 99 0
-108 14 99 0
-108 -14 -99 0
107 84 -103 0
107 -84 103 0
-107 84 103 0
-107 -84 -103 0
-109 14 0
-109 107 0
-109 -110 0
109 110 -14 -107 0
110 14 -107 0
-110 14 107 0
-111 14 0
110 -111 -107 0
-110 -111 107 0
110 111 -14 107 0
-110 111 -14 -107 0
-112 14 0
110 -112 107 0
-110 -112 -107 0
110 112 -14 -107 0
-110 112 -14 107 0
-113 108 0
-113 103 0
-113 -114 0
113 114 -108 -103 0
114 108 -103 0
-114 108 103 0
-115 108 0
114 -115 -103 0
-114 -115 103 0
114 115 -108 103 0
-114 115 -108 -103 0
-116 108 0
114 -116 103 0
-114 -116 -103 0
114 116 -108 -103 0
-114 116 -108 103 0
-117 118 0
-117 114 0
-117 -108 0
117 -118 108 -114 0
118 -108 114 0
-118 108 114 0
-119 114 0
118 -119 -108 0
-118 -119 108 0
118 119 108 -114 0
-118 119 -108 -114 0
-120 114 0
118 -120 108 0
-118 -120 -108 0
118 120 -108 -114 0
-118 120 108 -114 0
-121 118 0
-121 114 0
-121 -122 0
121 122 -118 -114 0
122 118 -114 0
-122 118 114 0
-123 118 0
122 -123 -114 0
-122 -123 114 0
122 123 -118 114 0
-122 123 -118 -114 0
-124 118 0
122 -124 114 0
-122 -124 -114 0
122 124 -118 -114 0
-122 124 -118 114 0
-125 126 0
-125 122 0
-125 -118 0
125 -126 118 -122 0
126 -118 122 0
-126 118 122 0
-127 122 0
126 -127 -118 0
-126 -127 118 0
126 127 118 -122 0
-126 127 -118 -122 0
-128 122 0
126 -128 118 0
-126 -128 -118 0
126 128 -118 -122 0
-126 128 118 -122 0
-129 126 0
-129 122 0
-129 -130 0
129 130 -126 -122 0
130 126 -122 0
-130 126 122 0
-131 126 0
130 -131 -122 0
-130 -131 122 0
130 131 -126 122 0
-130 131 -126 -122 0
-132 126 0
130 -132 122 0
-130 -132 -122 0
130 132 -126 -122 0
-130 132 -126 122 0
-133 126 0
-133 130 0
-133 -134 0
133 134 -126 -130 0
134 126 -130 0
-134 126 130 0
-135 126 0
134 -135 -130 0
-134 -135 130 0
134 135 -126 130 0
-134 135 -126 -130 0
-136 126 0
134 -136 130 0
-134 -136 -130 0
134 136 -126 -130 0
-134 136 -126 130 0
-137 26 0
-137 134 0
-137 126 -32 0
-137 -126 32 0
137 -26 126 32 -134 0
137 -26 -126 -32 -134 0
139 26 -126 0
139 -26 126 0
-139 26 126 0
-139 -26 -126 0
138 32 -134 0
138 -32 134 0
-138 32 134 0
-138 -32 -134 0
-140 139 0
-140 134 0
-140 -141 0
140 141 -139 -134 0
141 139 -134 0
-141 139 134 0
-142 139 0
141 -142 -134 0
-141 -142 134 0
141 142 -139 134 0
-141 142 -139 -134 0
-143 139 0
141 -143 134 0
-141 -143 -134 0
141 143 -139 -134 0
-141 143 -139 134 0
-144 145 0
-144 141 0
-144 -139 0
144 -145 139 -141 0
145 -139 141 0
-145 139 141 0
-146 141 0
145 -146 -139 0
-145 -146 139 0
145 146 139 -141 0
-145 146 -139 -141 0
-147 141 0
145 -147 139 0
-145 -147 -139 0
145 147 -139 -141 0
-145 147 139 -141 0
-148 145 0
-148 141 0
-148 -149 0
148 149 -145 -141 0
149 145 -141 0
-149 145 141 0
-150 145 0
149 -150 -141 0
-149 -150 141 0
149 150 -145 141 0
-149 150 -145 -141 0
-151 145 0
149 -151 141 0
-149 -151 -141 0
149 151 -145 -141 0
-149 151 -145 141 0
-152 153 0
-152 149 0
-152 -145 0
152 -153 145 -149 0
153 -145 149 0
-153 145 149 0
-154 149 0
153 -154 -145 0
-153 -154 145 0
153 154 145 -149 0
-153 154 -145 -149 0
-155 149 0
153 -155 145 0
-153 -155 -145 0
153 155 -145 -149 0
-153 155 145 -149 0
-156 153 0
-156 149 0
-156 -157 0
156 157 -153 -149 0
157 153 -149 0
-157 153 149 0
-158 153 0
157 -158 -149 0
-157 -158 149 0
157 158 -153 149 0
-157 158 -153 -149 0
-159 153 0
157 -159 149 0
-157 -159 -149 0
157 159 -153 -149 0
-157 159 -153 149 0
-160 26 0
-160 157 0
-160 153 -138 0
-160 -153 138 0
160 -26 153 138 -157 0
160 -26 -153 -138 -157 0
162 26 -153 0
162 -26 153 0
-162 26 153 0
-162 -26 -153 0
161 138 -157 0
161 -138 157 0
-161 138 157 0
-161 -138 -157 0
-163 26 0
-163 161 0
-163 -164 0
163 164 -26 -161 0
164 26 -161 0
-164 26 161 0
-165 26 0
164 -165 -161 0
-164 -165 161 0
164 165 -26 161 0
-164 165 -26 -161 0
-166 26 0
164 -166 161 0
-164 -166 -161 0
164 166 -26 -161 0
-164 166 -26 161 0
-167 162 0
-167 157 0
-167 -168 0
167 168 -162 -157 0
168 162 -157 0
-168 162 157 0
-169 162 0
168 -169 -157 0
-168 -169 157 0
168 169 -162 157 0
-168 169 -162 -157 0
-170 162 0
168 -170 157 0
-168 -170 -157 0
168 170 -162 -157 0
-168 170 -162 157 0
-171 172 0
-171 168 0
-171 -162 0
171 -172 162 -168 0
172 -162 168 0
-172 162 168 0
-173 168 0
172 -173 -162 0
-172 -173 162 0
172 173 162 -168 0
-172 173 -162 -168 0
-174 168 0
172 -174 162 0
-172 -174 -162 0
172 174 -162 -168 0
-172 174 162 -168 0
-175 172 0
-175 168 0
-175 -176 0
175 176 -172 -168 0
176 172 -168 0
-176 172 168 0
-177 172 0
176 -177 -168 0
-176 -177 168 0
176 177 -172 168 0
-176 177 -172 -168 0
-178 172 0
176 -178 168 0
-176 -178 -168 0
176 178 -172 -168 0
-176 178 -172 168 0
-179 180 0
-179 176 0
-179 -172 0
179 -180 172 -176 0
180 -172 176 0
-180 172 176 0
-181 176 0
180 -181 -172 0
-180 -181 172 0
180 181 172 -176 0
-180 181 -172 -176 0
-182 176 0
180 -182 172 0
-180 -182 -172 0
180 182 -172 -176 0
-180 182 172 -176 0
-183 180 0
-183 176 0
-183 -184 0
183 184 -180 -176 0
184 180 -176 0
-184 180 176 0
-185 180 0
184 -185 -176 0
-184 -185 176 0
184 185 -180 176 0
-184 185 -180 -176 0
-186 180 0
184 -186 176 0
-184 -186 -176 0
184 186 -180 -176 0
-184 186 -180 176 0
-187 180 0
-187 184 0
-187 -188 0
187 188 -180 -184 0
188 180 -184 0
-188 180 184 0
-189 180 0
188 -189 -184 0
-188 -189 184 0
188 189 -180 184 0
-188 189 -180 -184 0
-190 180 0
188 -190 184 0
-188 -190 -184 0
188 190 -180 -184 0
-188 190 -180 184 0
-191 38 0
-191 188 0
-191 180 -44 0
-191 -180 44 0
191 -38 180 44 -188 0
191 -38 -180 -44 -188 0
193 38 -180 0
193 -38 180 0
-193 38 180 0
-193 -38 -180 0
192 44 -188 0
192 -44 188 0
-192 44 188 0
-192 -44 -188 0
-194 193 0
-194 188 0
-194 -195 0
194 195 -193 -188 0
195 193 -188 0
-195 193 188 0
-196 193 0
195 -196 -188 0
-195 -196 188 0
195 196 -193 188 0
-195 196 -193 -188 0
-197 193 0
195 -197 188 0
-195 -197 -188 0
195 197 -193 -188 0
-195 197 -193 188 0
-198 199 0
-198 195 0
-198 -193 0
198 -199 193 -195 0
199 -193 195 0
-199 193 195 0
-200 195 0
199 -200 -193 0
-199 -200 193 0
199 200 193 -195 0
-199 200 -193 -195 0
-201 195 0
199 -201 193 0
-199 -201 -193 0
199 201 -193 -195 0
-199 201 193 -195 0
-202 199 0
-202 195 0
-202 -203 0
202 203 -199 -195 0
203 199 -195 0
-203 199 195 0
-204 199 0
203 -204 -195 0
-203 -204 195 0
203 204 -199 195 0
-203 204 -199 -195 0
-205 199 0
203 -205 195 0
-203 -205 -195 0
203 205 -199 -195 0
-203 205 -199 195 0
-206 207 0
-206 203 0
-206 -199 0
206 -207 199 -203 0
207 -199 203 0
-207 199 203 0
-208 203 0
207 -208 -199 0
-207 -208 199 0
207 208 199 -203 0
-207 208 -199 -203 0
-209 203 0
207 -209 199 0
-207 -209 -199 0
207 209 -199 -203 0
-207 209 199 -203 0
-210 207 0
-210 203 0
-210 -211 0
210 211 -207 -203 0
211 207 -203 0
-211 207 203 0
-212 207 0
211 -212 -203 0
-211 -212 203 0
211 212 -207 203 0
-211 212 -207 -203 0
-213 207 0
211 -213 203 0
-211 -213 -203 0
211 213 -207 -203 0
-211 213 -207 203 0
-214 38 0
-214 211 0
-214 207 -192 0
-214 -207 192 0
214 -38 207 192 -211 0
214 -38 -207 -192 -211 0
216 38 -207 0
216 -38 207 0
-216 38 207 0
-216 -38 -207 0
215 192 -211 0
215 -192 211 0
-215 192 211 0
-215 -192 -211 0
-217 218 0
-217 38 0
-217 -215 0
217 -218 -38 215 0
218 38 -215 0
-218 38 215 0
219 -38 0
-219 38 0
-220 216 0
-220 211 0
-220 -221 0
220 221 -216 -211 0
221 216 -211 0
-221 216 211 0
-222 216 0
221 -222 -211 0
-221 -222 211 0
221 222 -216 211 0
-221 222 -216 -211 0
-223 216 0
221 -223 211 0
-221 -223 -211 0
221 223 -216 -211 0
-221 223 -216 211 0
-224 225 0
-224 221 0
-224 -216 0
224 -225 216 -221 0
225 -216 221 0
-225 216 221 0
-226 221 0
225 -226 -216 0
-225 -226 216 0
225 226 216 -221 0
-225 226 -216 -221 0
-227 221 0
225 -227 216 0
-225 -227 -216 0
225 227 -216 -221 0
-225 227 216 -221 0
-228 225 0
-228 221 0
-228 -229 0
228 229 -225 -221 0
229 225 -221 0
-229 225 221 0
-230 225 0
229 -230 -221 0
-229 -230 221 0
229 230 -225 221 0
-229 230 -225 -221 0
-231 225 0
229 -231 221 0
-229 -231 -221 0
229 231 -225 -221 0
-229 231 -225 221 0
-232 233 0
-232 229 0
-232 -225 0
232 -233 225 -229 0
233 -225 229 0
-233 225 229 0
-234 229 0
233 -234 -225 0
-233 -234 225 0
233 234 225 -229 0
-233 234 -225 -229 0
-235 229 0
233 -235 225 0
-233 -235 -225 0
233 235 -225 -229 0
-233 235 225 -229 0
-236 233 0
-236 229 0
-236 -237 0
236 237 -233 -229 0
237 233 -229 0
-237 233 229 0
-238 233 0
237 -238 -229 0
-237 -238 229 0
237 238 -233 229 0
-237 238 -233 -229 0
-239 233 0
237 -239 229 0
-237 -239 -229 0
237 239 -233 -229 0
-237 239 -233 229 0
-240 233 0
-240 237 0
-240 -241 0
240 241 -233 -237 0
241 233 -237 0
-241 233 237 0
-242 233 0
241 -242 -237 0
-241 -242 237 0
241 242 -233 237 0
-241 242 -233 -237 0
-243 233 0
241 -243 237 0
-241 -243 -237 0
241 243 -233 -237 0
-241 243 -233 237 0
-244 50 0
-244 241 0
-244 233 -56 0
-244 -233 56 0
244 -50 233 56 -241 0
244 -50 -233 -56 -241 0
246 50 -233 0
246 -50 233 0
-246 50 233 0
-246 -50 -233 0
245 56 -241 0
245 -56 241 0
-245 56 241 0
-245 -56 -241 0
-247 246 0
-247 241 0
-247 -248 0
247 248 -246 -241 0
248 246 -241 0
-248 246 241 0
-249 246 0
248 -249 -241 0
-248 -249 241 0
248 249 -246 241 0
-248 249 -246 -241 0
-250 246 0
248 -250 241 0
-248 -250 -241 0
248 250 -246 -241 0
-248 250 -246 241 0
-251 252 0
-251 248 0
-251 -246 0
251 -252 246 -248 0
252 -246 248 0
-252 246 248 0
-253 248 0
252 -253 -246 0
-252 -253 246 0
252 253 246 -248 0
-252 253 -246 -248 0
-254 248 0
252 -254 246 0
-252 -254 -246 0
252 254 -246 -248 0
-252 254 246 -248 0
-255 252 0
-255 248 0
-255 -256 0
255 256 -252 -248 0
256 252 -248 0
-256 252 248 0
-257 252 0
256 -257 -248 0
-256 -257 248 0
256 257 -252 248 0
-256 257 -252 -248 0
-258 252 0
256 -258 248 0
-256 -258 -248 0
256 258 -252 -248 0
-256 258 -252 248 0
-259 260 0
-259 256 0
-259 -252 0
259 -260 252 -256 0
260 -252 256 0
-260 252 256 0
-261 256 0
260 -261 -252 0
-260 -261 252 0
260 261 252 -256 0
-260 261 -252 -256 0
-262 256 0
260 -262 252 0
-260 -262 -252 0
260 262 -252 -256 0
-260 262 252 -256 0
-263 260 0
-263 256 0
-263 -264 0
263 264 -260 -256 0
264 260 -256 0
-264 260 256 0
-265 260 0
264 -265 -256 0
-264 -265 256 0
264 265 -260 256 0
-264 265 -260 -256 0
-266 260 0
264 -266 256 0
-264 -266 -256 0
264 266 -260 -256 0
-264 266 -260 256 0
-267 50 0
-267 264 0
-267 260 -245 0
-267 -260 245 0
267 -50 260 245 -264 0
267 -50 -260 -245 -264 0
269 50 -260 0
269 -50 260 0
-269 50 260 0
-269 -50 -260 0
268 245 -264 0
268 -245 264 0
-268 245 264 0
-268 -245 -264 0
-270 50 0
-270 268 0
270 -50 -268 0
271 50 -268 0
271 -50 268 0
-271 50 268 0
-271 -50 -268 0
-272 273 0
-272 271 0
-272 -50 0
272 -273 50 -271 0
273 -50 271 0
-273 50 271 0
-274 271 0
273 -274 -50 0
-273 -274 50 0
273 274 50 -271 0
-273 274 -50 -271 0
-275 271 0
273 -275 50 0
-273 -275 -50 0
273 275 -50 -271 0
-273 275 50 -271 0
-276 273 0
-276 271 0
276 -273 -271 0
277 273 -271 0
277 -273 271 0
-277 273 271 0
-277 -273 -271 0
-278 38 0
-278 277 0
-278 273 -218 0
-278 -273 218 0
278 -38 273 218 -277 0
278 -38 -273 -218 -277 0
280 38 -273 0
280 -38 273 0
-280 38 273 0
-280 -38 -273 0
279 218 -277 0
279 -218 277 0
-279 218 277 0
-279 -218 -277 0
-281 280 0
-281 277 0
-281 -282 0
281 282 -280 -277 0
282 280 -277 0
-282 280 277 0
283 -280 0
-283 280 0
-284 38 0
-284 282 0
-284 280 -279 0
-284 -280 279 0
284 -38 280 279 -282 0
284 -38 -280 -279 -282 0
286 38 -280 0
286 -38 280 0
-286 38 280 0
-286 -38 -280 0
285 279 -282 0
285 -279 282 0
-285 279 282 0
-285 -279 -282 0
-287 38 0
-287 285 0
287 -38 -285 0
288 38 -285 0
288 -38 285 0
-288 38 285 0
-288 -38 -285 0
-289 290 0
-289 288 0
-289 -38 0
289 -290 38 -288 0
290 -38 288 0
-290 38 288 0
-291 288 0
290 -291 -38 0
-290 -291 38 0
290 291 38 -288 0
-290 291 -38 -288 0
-292 288 0
290 -292 38 0
-290 -292 -38 0
290 292 -38 -288 0
-290 292 38 -288 0
-293 290 0
-293 288 0
293 -290 -288 0
294 290 -288 0
294 -290 288 0
-294 290 288 0
-294 -290 -288 0
-295 296 0
-295 286 0
-295 -282 0
295 -296 -286 282 0
296 286 -282 0
-296 286 282 0
297 -286 0
-297 286 0
-298 26 0
-298 296 0
-298 286 -164 0
-298 -286 164 0
298 -26 286 164 -296 0
298 -26 -286 -164 -296 0
300 26 -286 0
300 -26 286 0
-300 26 286 0
-300 -26 -286 0
299 164 -296 0
299 -164 296 0
-299 164 296 0
-299 -164 -296 0
-301 300 0
-301 296 0
-301 -302 0
301 302 -300 -296 0
302 300 -296 0
-302 300 296 0
-303 300 0
302 -303 -296 0
-302 -303 296 0
302 303 -300 296 0
-302 303 -300 -296 0
-304 300 0
302 -304 296 0
-302 -304 -296 0
302 304 -300 -296 0
-302 304 -300 296 0
-305 26 0
-305 302 0
-305 300 -299 0
-305 -300 299 0
305 -26 300 299 -302 0
305 -26 -300 -299 -302 0
307 26 -300 0
307 -26 300 0
-307 26 300 0
-307 -26 -300 0
306 299 -302 0
306 -299 302 0
-306 299 302 0
-306 -299 -302 0
-308 309 0
-308 26 0
-308 -306 0
308 -309 -26 306 0
309 26 -306 0
-309 26 306 0
310 -26 0
-310 26 0
-311 26 0
-311 294 0
-311 290 -309 0
-311 -290 309 0
311 -26 290 309 -294 0
311 -26 -290 -309 -294 0
313 26 -290 0
313 -26 290 0
-313 26 290 0
-313 -26 -290 0
312 309 -294 0
312 -309 294 0
-312 309 294 0
-312 -309 -294 0
-314 313 0
-314 294 0
-314 -315 0
314 315 -313 -294 0
315 313 -294 0
-315 313 294 0
316 -313 0
-316 313 0
-317 26 0
-317 315 0
-317 313 -312 0
-317 -313 312 0
317 -26 313 312 -315 0
317 -26 -313 -312 -315 0
319 26 -313 0
319 -26 313 0
-319 26 313 0
-319 -26 -313 0
318 312 -315 0
318 -312 315 0
-318 312 315 0
-318 -312 -315 0
-320 26 0
-320 318 0
320 -26 -318 0
321 26 -318 0
321 -26 318 0
-321 26 318 0
-321 -26 -318 0
-322 323 0
-322 321 0
-322 -26 0
322 -323 26 -321 0
323 -26 321 0
-323 26 321 0
-324 321 0
323 -324 -26 0
-323 -324 26 0
323 324 26 -321 0
-323 324 -26 -321 0
-325 321 0
323 -325 26 0
-323 -325 -26 0
323 325 -26 -321 0
-323 325 26 -321 0
-326 323 0
-326 321 0
326 -323 -321 0
327 323 -321 0
327 -323 321 0
-327 323 321 0
-327 -323 -321 0
-328 329 0
-328 319 0
-328 -315 0
328 -329 -319 315 0
329 319 -315 0
-329 319 315 0
330 -319 0
-330 319 0
-331 307 0
-331 302 0
-331 -332 0
331 332 -307 -302 0
332 307 -302 0
-332 307 302 0
-333 307 0
332 -333 -302 0
-332 -333 302 0
332 333 -307 302 0
-332 333 -307 -302 0
-334 307 0
332 -334 302 0
-332 -334 -302 0
332 334 -307 -302 0
-332 334 -307 302 0
-335 14 0
-335 332 0
-335 307 -110 0
-335 -307 110 0
335 -14 307 110 -332 0
335 -14 -307 -110 -332 0
337 14 -307 0
337 -14 307 0
-337 14 307 0
-337 -14 -307 0
336 110 -332 0
336 -110 332 0
-336 110 332 0
-336 -110 -332 0
-338 337 0
-338 332 0
-338 -339 0
338 339 -337 -332 0
339 337 -332 0
-339 337 332 0
-340 337 0
339 -340 -332 0
-339 -340 332 0
339 340 -337 332 0
-339 340 -337 -332 0
-341 337 0
339 -341 332 0
-339 -341 -332 0
339 341 -337 -332 0
-339 341 -337 332 0
-342 14 0
-342 339 0
-342 337 -336 0
-342 -337 336 0
342 -14 337 336 -339 0
342 -14 -337 -336 -339 0
344 14 -337 0
344 -14 337 0
-344 14 337 0
-344 -14 -337 0
343 336 -339 0
343 -336 339 0
-343 336 339 0
-343 -336 -339 0
-345 14 0
-345 343 0
-345 -346 0
345 346 -14 -343 0
346 14 -343 0
-346 14 343 0
-347 14 0
346 -347 -343 0
-346 -347 343 0
346 347 -14 343 0
-346 347 -14 -343 0
-348 14 0
346 -348 343 0
-346 -348 -343 0
346 348 -14 -343 0
-346 348 -14 343 0
-349 14 0
-349 329 0
-349 319 -346 0
-349 -319 346 0
349 -14 319 346 -329 0
349 -14 -319 -346 -329 0
351 14 -319 0
351 -14 319 0
-351 14 319 0
-351 -14 -319 0
350 346 -329 0
350 -346 329 0
-350 346 329 0
-350 -346 -329 0
-352 351 0
-352 329 0
-352 -353 0
352 353 -351 -329 0
353 351 -329 0
-353 351 329 0
-354 351 0
353 -354 -329 0
-353 -354 329 0
353 354 -351 329 0
-353 354 -351 -329 0
-355 351 0
353 -355 329 0
-353 -355 -329 0
353 355 -351 -329 0
-353 355 -351 329 0
-356 14 0
-356 353 0
-356 351 -350 0
-356 -351 350 0
356 -14 351 350 -353 0
356 -14 -351 -350 -353 0
358 14 -351 0
358 -14 351 0
-358 14 351 0
-358 -14 -351 0
357 350 -353 0
357 -350 353 0
-357 350 353 0
-357 -350 -353 0
-359 360 0
-359 14 0
-359 -357 0
359 -360 -14 357 0
360 14 -357 0
-360 14 357 0
361 -14 0
-361 14 0
-362 14 0
-362 327 0
-362 323 -360 0
-362 -323 360 0
362 -14 323 360 -327 0
362 -14 -323 -360 -327 0
364 14 -323 0
364 -14 323 0
-364 14 323 0
-364 -14 -323 0
363 360 -327 0
363 -360 327 0
-363 360 327 0
-363 -360 -327 0
-365 364 0
-365 327 0
-365 -366 0
365 366 -364 -327 0
366 364 -327 0
-366 364 327 0
367 -364 0
-367 364 0
-368 14 0
-368 366 0
-368 364 -363 0
-368 -364 363 0
368 -14 364 363 -366 0
368 -14 -364 -363 -366 0
370 14 -364 0
370 -14 364 0
-370 14 364 0
-370 -14 -364 0
369 363 -366 0
369 -363 366 0
-369 363 366 0
-369 -363 -366 0
-371 14 0
-371 369 0
371 -14 -369 0
372 14 -369 0
372 -14 369 0
-372 14 369 0
-372 -14 -369 0
-373 374 0
-373 372 0
-373 -14 0
373 -374 14 -372 0
374 -14 372 0
-374 14 372 0
-375 372 0
374 -375 -14 0
-374 -375 14 0
374 375 14 -372 0
-374 375 -14 -372 0
-376 372 0
374 -376 14 0
-374 -376 -14 0
374 376 -14 -372 0
-374 376 14 -372 0
-377 374 0
-377 372 0
377 -374 -372 0
378 374 -372 0
378 -374 372 0
-378 374 372 0
-378 -374 -372 0
-379 380 0
-379 370 0
-379 -366 0
379 -380 -370 366 0
380 370 -366 0
-380 370 366 0
381 -370 0
-381 370 0
-382 358 0
-382 353 0
-382 -383 0
382 383 -358 -353 0
383 358 -353 0
-383 358 353 0
-384 358 0
383 -384 -353 0
-383 -384 353 0
383 384 -358 353 0
-383 384 -358 -353 0
-385 358 0
383 -385 353 0
-383 -385 -353 0
383 385 -358 -353 0
-383 385 -358 353 0
-386 344 0
-386 339 0
-386 -387 0
386 387 -344 -339 0
387 344 -339 0
-387 344 339 0
-388 344 0
387 -388 -339 0
-387 -388 339 0
387 388 -344 339 0
-387 388 -344 -339 0
-389 344 0
387 -389 339 0
-387 -389 -339 0
387 389 -344 -339 0
-387 389 -344 339 0
-390 269 0
-390 264 0
-390 -391 0
390 391 -269 -264 0
391 269 -264 0
-391 269 264 0
-392 269 0
391 -392 -264 0
-391 -392 264 0
391 392 -269 264 0
-391 392 -269 -264 0
-393 269 0
391 -393 264 0
-391 -393 -264 0
391 393 -269 -264 0
-391 393 -269 264 0
-394 395 0
-394 391 0
-394 -269 0
394 -395 269 -391 0
395 -269 391 0
-395 269 391 0
-396 391 0
395 -396 -269 0
-395 -396 269 0
395 396 269 -391 0
-395 396 -269 -391 0
-397 391 0
395 -397 269 0
-395 -397 -269 0
395 397 -269 -391 0
-395 397 269 -391 0
-398 395 0
-398 391 0
-398 -399 0
398 399 -395 -391 0
399 395 -391 0
-399 395 391 0
-400 395 0
399 -400 -391 0
-399 -400 391 0
399 400 -395 391 0
-399 400 -395 -391 0
-401 395 0
399 -401 391 0
-399 -401 -391 0
399 401 -395 -391 0
-399 401 -395 391 0
-402 403 0
-402 399 0
-402 -395 0
402 -403 395 -399 0
403 -395 399 0
-403 395 399 0
-404 399 0
403 -404 -395 0
-403 -404 395 0
403 404 395 -399 0
-403 404 -395 -399 0
-405 399 0
403 -405 395 0
-403 -405 -395 0
403 405 -395 -399 0
-403 405 395 -399 0
-406 403 0
-406 399 0
-406 -407 0
406 407 -403 -399 0
407 403 -399 0
-407 403 399 0
-408 403 0
407 -408 -399 0
-407 -408 399 0
407 408 -403 399 0
-407 408 -403 -399 0
-409 403 0
407 -409 399 0
-407 -409 -399 0
407 409 -403 -399 0
-407 409 -403 399 0
-374 0
-370 0
-380 0
-358 0
-383 0
-344 0
-387 0
-403 0
-407 0
